(set-logic QF_S)
(declare-fun var0 () String)
(assert (str.in.re var0 (re.++ (re.* (re.* (str.to.re "000"))) (re.++ (re.+ (re.union (str.to.re "1") (str.to.re "22"))) (re.++ (re.+ (re.* (str.to.re "3"))) (re.++ (re.+ (re.+ (str.to.re "44"))) (re.++ (re.+ (re.+ (str.to.re "555"))) (re.++ (re.* (re.+ (str.to.re "666"))) (re.++ (re.* (re.* (str.to.re "77"))) (re.++ (re.union (re.* (str.to.re "88")) (re.* (str.to.re "9"))) (re.++ (re.+ (re.* (str.to.re "aa"))) (re.++ (re.* (re.+ (str.to.re "bb"))) (re.++ (re.* (re.union (str.to.re "ccc") (str.to.re "dd"))) (re.++ (re.union (re.* (str.to.re "e")) (re.* (str.to.re "ff"))) (re.++ (re.* (re.union (str.to.re "ggg") (str.to.re "hhh"))) (re.++ (re.union (re.+ (str.to.re "ii")) (re.+ (str.to.re "j"))) (re.++ (re.union (re.union (str.to.re "kkk") (str.to.re "ll")) (re.union (str.to.re "mm") (str.to.re "nnn"))) (re.++ (re.* (re.* (str.to.re "ooo"))) (re.++ (re.* (re.+ (str.to.re "p"))) (re.++ (re.union (re.+ (str.to.re "qqq")) (re.+ (str.to.re "r"))) (re.++ (re.* (re.union (str.to.re "sss") (str.to.re "ttt"))) (re.++ (re.+ (re.* (str.to.re "u"))) (re.++ (re.+ (re.+ (str.to.re "vvv"))) (re.++ (re.* (re.* (str.to.re "ww"))) (re.++ (re.union (re.* (str.to.re "x")) (re.* (str.to.re "yy"))) (re.++ (re.* (re.* (str.to.re "zzz"))) (re.++ (re.+ (re.+ (str.to.re "AAA"))) (re.++ (re.union (re.+ (str.to.re "BBB")) (re.+ (str.to.re "CCC"))) (re.++ (re.union (re.* (str.to.re "D")) (re.* (str.to.re "EEE"))) (re.++ (re.* (re.+ (str.to.re "F"))) (re.++ (re.union (re.union (str.to.re "GGG") (str.to.re "HHH")) (re.union (str.to.re "II") (str.to.re "J"))) (re.++ (re.+ (re.* (str.to.re "KK"))) (re.++ (re.+ (re.* (str.to.re "LLL"))) (re.++ (re.+ (re.* (str.to.re "MM"))) (re.++ (re.union (re.+ (str.to.re "NNN")) (re.+ (str.to.re "OO"))) (re.++ (re.union (re.+ (str.to.re "P")) (re.+ (str.to.re "QQ"))) (re.++ (re.* (re.union (str.to.re "R") (str.to.re "SSS"))) (re.++ (re.union (re.* (str.to.re "T")) (re.* (str.to.re "UU"))) (re.++ (re.* (re.union (str.to.re "VVV") (str.to.re "W"))) (re.++ (re.+ (re.+ (str.to.re "X"))) (re.++ (re.+ (re.* (str.to.re "YY"))) (re.++ (re.* (re.union (str.to.re "ZZZ") (str.to.re "!!"))) (re.++ (re.union (re.* (str.to.re """")) (re.* (str.to.re "##"))) (re.++ (re.union (re.+ (str.to.re "$$$")) (re.+ (str.to.re "%%%"))) (re.++ (re.* (re.* (str.to.re "&&"))) (re.++ (re.+ (re.* (str.to.re "'"))) (re.++ (re.* (re.* (str.to.re "(("))) (re.++ (re.union (re.+ (str.to.re ")))")) (re.+ (str.to.re "**"))) (re.++ (re.+ (re.union (str.to.re "+") (str.to.re ",,"))) (re.++ (re.+ (re.* (str.to.re "-"))) (re.++ (re.union (re.union (str.to.re "..") (str.to.re "///")) (re.union (str.to.re ":::") (str.to.re ";;"))) (re.++ (re.+ (re.union (str.to.re "<<") (str.to.re "==="))) (re.++ (re.+ (re.* (str.to.re ">"))) (re.++ (re.union (re.union (str.to.re "??") (str.to.re "@@")) (re.union (str.to.re "[[[") (str.to.re "\\"))) (re.++ (re.* (re.* (str.to.re "]]]"))) (re.++ (re.union (re.* (str.to.re "^^^")) (re.* (str.to.re "___"))) (re.++ (re.* (re.* (str.to.re "`"))) (re.++ (re.* (re.union (str.to.re "{") (str.to.re "||"))) (re.+ (re.* (str.to.re "}}}")))))))))))))))))))))))))))))))))))))))))))))))))))))))))))))
(check-sat)